c Random generated cnf formula, satisfiable: true
p cnf 10 50
-1 -7 -2 0
9 -3 -4 0
-5 -7 -6 0
-2 4 -9 0
5 6 -4 0
9 -8 6 0
-4 -5 -7 0
3 7 9 0
2 -8 9 0
3 -6 8 0
4 7 10 0
2 8 -6 0
7 -4 -6 0
-1 -5 -9 0
8 -1 -5 0
2 5 1 0
-1 7 8 0
2 -9 -3 0
6 -3 -5 0
-2 -9 1 0
5 8 -4 0
-6 7 -3 0
-3 -9 10 0
-7 -10 -1 0
-5 9 4 0
-9 -2 3 0
7 1 -6 0
8 -1 -3 0
2 4 3 0
4 -6 2 0
10 -5 -7 0
-3 6 5 0
8 -9 -5 0
-7 4 6 0
-4 6 -1 0
4 -1 8 0
7 -10 8 0
7 -4 -6 0
8 -5 -4 0
-5 2 1 0
-4 -3 1 0
-10 -7 -9 0
6 2 -5 0
-4 9 6 0
3 -7 -9 0
-3 -9 2 0
-4 7 8 0
-8 -10 9 0
8 9 10 0
3 -6 5 0
